158
1000000
134833
347098
89546
530628
411593
381944
104283
165561
461879
116660
17970
14148
106795
11495
592238
155230
314679
549998
316532
75550
102576
244582
459086
682672
88984
709937
144243
591963
489046
184559
370358
286185
259184
150089
48429
263835
695173
206289
296347
71154
296800
609103
13733
346233
35072
631250
315798
354792
67835
214724
536186
552593
386908
210532
48176
356033
341760
268565
158250
458436
102155
522095
286614
228459
31438
468110
58730
81138
119530
325180
361599
280563
421463
596978
90307
538121
368759
41289
477905
406
236241
274497
414428
272979
377562
589174
496672
79881
85951
283409
199154
119442
514971
33594
415385
599619
21171
134833
455009
80526
257149
304827
366748
703713
551284
52157
233613
290488
408364
289107
279840
252457
166844
249604
225092
328872
517814
479542
57081
275149
40053
40071
165040
13580
341847
279546
9955
34263
345665
81943
437097
485145
231981
465911
151767
199715
557355
108086
666105
297542
9667
359151
736165
640849
233123
103053
84291
134204
66515
126932
55481
296287
689920
311915
749611
411986
63294
153677
